(set-logic HORN)
(set-info :source |
    Benchmark: C_VC
    Output by Princess (http://www.philipp.ruemmer.org/princess.shtml)
|)
(set-info :status unknown)
(declare-fun inv_main14 (Int Int Int Int Int) Bool)
(declare-fun inv_main20 (Int Int Int Int Int) Bool)
(declare-fun inv_main3 (Int Int) Bool)
(assert (forall ((var0 Int)) (forall ((var1 Int)) (inv_main3 var0 var1 ) ) ) )
(assert (forall ((var0 Int)) (forall ((var1 Int)) (forall ((var2 Int)) (forall ((var3 Int)) (forall ((var4 Int)) (or (not (and (inv_main14 var0 var2 var1 var4 var3 ) (and (= var0 var2 ) (= var1 0 ) ) ) ) (inv_main20 var0 var2 var1 var4 var3 ) ) ) ) ) ) ) )
(assert (forall ((var0 Int)) (forall ((var1 Int)) (forall ((var2 Int)) (forall ((var3 Int)) (forall ((var4 Int)) (or (not (and (inv_main14 var0 var2 var1 var4 var3 ) (not (= var1 0 ) ) ) ) (inv_main14 var0 var2 (+ var1 (- 1) ) (+ var4 (- 2) ) (+ var3 1 ) ) ) ) ) ) ) ) )
(assert (forall ((var0 Int)) (forall ((var1 Int)) (forall ((var2 Int)) (forall ((var3 Int)) (or (not (and (inv_main3 var1 var3 ) (and (<= 0 var2 ) (and (<= 0 var0 ) (<= 0 (+ 1000000 (* (- 1) var0 ) ) ) ) ) ) ) (inv_main14 var0 var2 var0 var2 0 ) ) ) ) ) ) )
(assert (forall ((var0 Int)) (forall ((var1 Int)) (forall ((var2 Int)) (forall ((var3 Int)) (forall ((var4 Int)) (not (and (inv_main20 var0 var2 var1 var4 var3 ) (not (= (+ var4 (* 1 var3 ) ) 0 ) ) ) ) ) ) ) ) ) )
(check-sat)
